\* PetProject *\
Minimize
Total_Costs: 5 x_1.0_2.0 + 6 x_1.0_3.0 + x_1.0_4.0 + 6 x_1.0_5.0 + 6 x_1.0_6.0
 + 3 x_1.0_7.0 + 5 x_2.0_1.0 + x_2.0_3.0 + 4 x_2.0_4.0 + 7 x_2.0_5.0
 + 5 x_2.0_6.0 + 2 x_2.0_7.0 + 6 x_3.0_1.0 + x_3.0_2.0 + 5 x_3.0_4.0
 + 8 x_3.0_5.0 + 6 x_3.0_6.0 + 3 x_3.0_7.0 + x_4.0_1.0 + 4 x_4.0_2.0
 + 5 x_4.0_3.0 + 7 x_4.0_5.0 + 5 x_4.0_6.0 + 6 x_5.0_1.0 + 7 x_5.0_2.0
 + 8 x_5.0_3.0 + 7 x_5.0_4.0 + 2 x_5.0_6.0 + 6 x_6.0_1.0 + 5 x_6.0_2.0
 + 6 x_6.0_3.0 + 5 x_6.0_4.0 + 2 x_6.0_5.0 + 3 x_7.0_1.0 + 2 x_7.0_2.0
 + 3 x_7.0_3.0
Subject To
Basic_One_Entry_1: x_1.0_1.0 + x_2.0_1.0 + x_3.0_1.0 + x_4.0_1.0 + x_5.0_1.0
 + x_6.0_1.0 + x_7.0_1.0 = 1
Basic_One_Entry_2: x_1.0_2.0 + x_2.0_2.0 + x_3.0_2.0 + x_4.0_2.0 + x_5.0_2.0
 + x_6.0_2.0 + x_7.0_2.0 = 1
Basic_One_Entry_3: x_1.0_3.0 + x_2.0_3.0 + x_3.0_3.0 + x_4.0_3.0 + x_5.0_3.0
 + x_6.0_3.0 + x_7.0_3.0 = 1
Basic_One_Entry_4: x_1.0_4.0 + x_2.0_4.0 + x_3.0_4.0 + x_4.0_4.0 + x_5.0_4.0
 + x_6.0_4.0 + x_7.0_4.0 = 1
Basic_One_Entry_5: x_1.0_5.0 + x_2.0_5.0 + x_3.0_5.0 + x_4.0_5.0 + x_5.0_5.0
 + x_6.0_5.0 + x_7.0_5.0 = 1
Basic_One_Entry_6: x_1.0_6.0 + x_2.0_6.0 + x_3.0_6.0 + x_4.0_6.0 + x_5.0_6.0
 + x_6.0_6.0 + x_7.0_6.0 = 1
Basic_One_Entry_7: x_1.0_7.0 + x_2.0_7.0 + x_3.0_7.0 + x_4.0_7.0 + x_5.0_7.0
 + x_6.0_7.0 + x_7.0_7.0 = 1
Basic_One_Exit_1: x_1.0_1.0 + x_1.0_2.0 + x_1.0_3.0 + x_1.0_4.0 + x_1.0_5.0
 + x_1.0_6.0 + x_1.0_7.0 = 1
Basic_One_Exit_2: x_2.0_1.0 + x_2.0_2.0 + x_2.0_3.0 + x_2.0_4.0 + x_2.0_5.0
 + x_2.0_6.0 + x_2.0_7.0 = 1
Basic_One_Exit_3: x_3.0_1.0 + x_3.0_2.0 + x_3.0_3.0 + x_3.0_4.0 + x_3.0_5.0
 + x_3.0_6.0 + x_3.0_7.0 = 1
Basic_One_Exit_4: x_4.0_1.0 + x_4.0_2.0 + x_4.0_3.0 + x_4.0_4.0 + x_4.0_5.0
 + x_4.0_6.0 + x_4.0_7.0 = 1
Basic_One_Exit_5: x_5.0_1.0 + x_5.0_2.0 + x_5.0_3.0 + x_5.0_4.0 + x_5.0_5.0
 + x_5.0_6.0 + x_5.0_7.0 = 1
Basic_One_Exit_6: x_6.0_1.0 + x_6.0_2.0 + x_6.0_3.0 + x_6.0_4.0 + x_6.0_5.0
 + x_6.0_6.0 + x_6.0_7.0 = 1
Basic_One_Exit_7: x_7.0_1.0 + x_7.0_2.0 + x_7.0_3.0 + x_7.0_4.0 + x_7.0_5.0
 + x_7.0_6.0 + x_7.0_7.0 = 1
Capacity_1_3: b_1.0_1.0 + b_2.0_1.0 + b_3.0_1.0 - b_4.0_1.0 - b_5.0_1.0
 - b_6.0_1.0 <= 3
Capacity_2_3: b_1.0_2.0 + b_2.0_2.0 + b_3.0_2.0 - b_4.0_2.0 - b_5.0_2.0
 - b_6.0_2.0 <= 3
Capacity_3_3: b_1.0_3.0 + b_2.0_3.0 + b_3.0_3.0 - b_4.0_3.0 - b_5.0_3.0
 - b_6.0_3.0 <= 3
Capacity_4_5: b_1.0_4.0 + b_2.0_4.0 + b_3.0_4.0 - b_4.0_4.0 - b_5.0_4.0
 - b_6.0_4.0 <= 5
Capacity_5_5: b_1.0_5.0 + b_2.0_5.0 + b_3.0_5.0 - b_4.0_5.0 - b_5.0_5.0
 - b_6.0_5.0 <= 5
Capacity_6_5: b_1.0_6.0 + b_2.0_6.0 + b_3.0_6.0 - b_4.0_6.0 - b_5.0_6.0
 - b_6.0_6.0 <= 5
DiagonalB_1: b_1.0_1.0 = 0
DiagonalB_2: b_2.0_2.0 = 0
DiagonalB_3: b_3.0_3.0 = 0
DiagonalB_4: b_4.0_4.0 = 0
DiagonalB_5: b_5.0_5.0 = 0
DiagonalB_6: b_6.0_6.0 = 0
DiagonalB_7: b_7.0_7.0 = 0
DiagonalX_1: x_1.0_1.0 = 0
DiagonalX_2: x_2.0_2.0 = 0
DiagonalX_3: x_3.0_3.0 = 0
DiagonalX_4: x_4.0_4.0 = 0
DiagonalX_5: x_5.0_5.0 = 0
DiagonalX_6: x_6.0_6.0 = 0
DiagonalX_7: x_7.0_7.0 = 0
End_1: b_1.0_7.0 = 1
End_2: b_2.0_7.0 = 1
End_3: b_3.0_7.0 = 1
End_4: b_4.0_7.0 = 1
End_5: b_5.0_7.0 = 1
End_6: b_6.0_7.0 = 1
Equality26_1_2: b_1.0_2.0 + b_2.0_1.0 = 1
Equality26_1_3: b_1.0_3.0 + b_3.0_1.0 = 1
Equality26_1_4: b_1.0_4.0 + b_4.0_1.0 = 1
Equality26_1_5: b_1.0_5.0 + b_5.0_1.0 = 1
Equality26_1_6: b_1.0_6.0 + b_6.0_1.0 = 1
Equality26_2_1: b_1.0_2.0 + b_2.0_1.0 = 1
Equality26_2_3: b_2.0_3.0 + b_3.0_2.0 = 1
Equality26_2_4: b_2.0_4.0 + b_4.0_2.0 = 1
Equality26_2_5: b_2.0_5.0 + b_5.0_2.0 = 1
Equality26_2_6: b_2.0_6.0 + b_6.0_2.0 = 1
Equality26_3_1: b_1.0_3.0 + b_3.0_1.0 = 1
Equality26_3_2: b_2.0_3.0 + b_3.0_2.0 = 1
Equality26_3_4: b_3.0_4.0 + b_4.0_3.0 = 1
Equality26_3_5: b_3.0_5.0 + b_5.0_3.0 = 1
Equality26_3_6: b_3.0_6.0 + b_6.0_3.0 = 1
Equality26_4_1: b_1.0_4.0 + b_4.0_1.0 = 1
Equality26_4_2: b_2.0_4.0 + b_4.0_2.0 = 1
Equality26_4_3: b_3.0_4.0 + b_4.0_3.0 = 1
Equality26_4_5: b_4.0_5.0 + b_5.0_4.0 = 1
Equality26_4_6: b_4.0_6.0 + b_6.0_4.0 = 1
Equality26_5_1: b_1.0_5.0 + b_5.0_1.0 = 1
Equality26_5_2: b_2.0_5.0 + b_5.0_2.0 = 1
Equality26_5_3: b_3.0_5.0 + b_5.0_3.0 = 1
Equality26_5_4: b_4.0_5.0 + b_5.0_4.0 = 1
Equality26_5_6: b_5.0_6.0 + b_6.0_5.0 = 1
Equality26_6_1: b_1.0_6.0 + b_6.0_1.0 = 1
Equality26_6_2: b_2.0_6.0 + b_6.0_2.0 = 1
Equality26_6_3: b_3.0_6.0 + b_6.0_3.0 = 1
Equality26_6_4: b_4.0_6.0 + b_6.0_4.0 = 1
Equality26_6_5: b_5.0_6.0 + b_6.0_5.0 = 1
First_1: x_7.0_4.0 = 0
First_2: x_7.0_5.0 = 0
First_3: x_7.0_6.0 = 0
Last_1: x_1.0_7.0 = 0
Last_2: x_2.0_7.0 = 0
Last_3: x_3.0_7.0 = 0
MIN_OBJ: 5 x_1.0_2.0 + 6 x_1.0_3.0 + x_1.0_4.0 + 6 x_1.0_5.0 + 6 x_1.0_6.0
 + 3 x_1.0_7.0 + 5 x_2.0_1.0 + x_2.0_3.0 + 4 x_2.0_4.0 + 7 x_2.0_5.0
 + 5 x_2.0_6.0 + 2 x_2.0_7.0 + 6 x_3.0_1.0 + x_3.0_2.0 + 5 x_3.0_4.0
 + 8 x_3.0_5.0 + 6 x_3.0_6.0 + 3 x_3.0_7.0 + x_4.0_1.0 + 4 x_4.0_2.0
 + 5 x_4.0_3.0 + 7 x_4.0_5.0 + 5 x_4.0_6.0 + 6 x_5.0_1.0 + 7 x_5.0_2.0
 + 8 x_5.0_3.0 + 7 x_5.0_4.0 + 2 x_5.0_6.0 + 6 x_6.0_1.0 + 5 x_6.0_2.0
 + 6 x_6.0_3.0 + 5 x_6.0_4.0 + 2 x_6.0_5.0 + 3 x_7.0_1.0 + 2 x_7.0_2.0
 + 3 x_7.0_3.0 >= 17
Prior1_1: b_4.0_1.0 = 0
Prior1_2: b_5.0_2.0 = 0
Prior1_3: b_6.0_3.0 = 0
Prior2_1: b_1.0_4.0 = 1
Prior2_2: b_2.0_5.0 = 1
Prior2_3: b_3.0_6.0 = 1
Start_1: b_7.0_1.0 = 1
Start_2: b_7.0_2.0 = 1
Start_3: b_7.0_3.0 = 1
Start_4: b_7.0_4.0 = 1
Start_5: b_7.0_5.0 = 1
Start_6: b_7.0_6.0 = 1
VehicleReturn: b_1.0_7.0 + b_2.0_7.0 + b_3.0_7.0 + b_4.0_7.0 + b_5.0_7.0
 + b_6.0_7.0 = 6
copy1_1_1_2: 0 b_2.0_1.0 + x_1.0_1.0 <= 1
copy1_1_1_3: 0 b_3.0_1.0 + x_1.0_1.0 <= 1
copy1_1_1_4: 0 b_4.0_1.0 + x_1.0_1.0 <= 1
copy1_1_1_5: 0 b_5.0_1.0 + x_1.0_1.0 <= 1
copy1_1_1_6: 0 b_6.0_1.0 + x_1.0_1.0 <= 1
copy1_1_2_2: b_2.0_1.0 - b_2.0_2.0 + x_1.0_2.0 <= 1
copy1_1_2_3: b_3.0_1.0 - b_3.0_2.0 + x_1.0_2.0 <= 1
copy1_1_2_4: b_4.0_1.0 - b_4.0_2.0 + x_1.0_2.0 <= 1
copy1_1_2_5: b_5.0_1.0 - b_5.0_2.0 + x_1.0_2.0 <= 1
copy1_1_2_6: b_6.0_1.0 - b_6.0_2.0 + x_1.0_2.0 <= 1
copy1_1_3_2: b_2.0_1.0 - b_2.0_3.0 + x_1.0_3.0 <= 1
copy1_1_3_3: b_3.0_1.0 - b_3.0_3.0 + x_1.0_3.0 <= 1
copy1_1_3_4: b_4.0_1.0 - b_4.0_3.0 + x_1.0_3.0 <= 1
copy1_1_3_5: b_5.0_1.0 - b_5.0_3.0 + x_1.0_3.0 <= 1
copy1_1_3_6: b_6.0_1.0 - b_6.0_3.0 + x_1.0_3.0 <= 1
copy1_1_4_2: b_2.0_1.0 - b_2.0_4.0 + x_1.0_4.0 <= 1
copy1_1_4_3: b_3.0_1.0 - b_3.0_4.0 + x_1.0_4.0 <= 1
copy1_1_4_4: b_4.0_1.0 - b_4.0_4.0 + x_1.0_4.0 <= 1
copy1_1_4_5: b_5.0_1.0 - b_5.0_4.0 + x_1.0_4.0 <= 1
copy1_1_4_6: b_6.0_1.0 - b_6.0_4.0 + x_1.0_4.0 <= 1
copy1_1_5_2: b_2.0_1.0 - b_2.0_5.0 + x_1.0_5.0 <= 1
copy1_1_5_3: b_3.0_1.0 - b_3.0_5.0 + x_1.0_5.0 <= 1
copy1_1_5_4: b_4.0_1.0 - b_4.0_5.0 + x_1.0_5.0 <= 1
copy1_1_5_5: b_5.0_1.0 - b_5.0_5.0 + x_1.0_5.0 <= 1
copy1_1_5_6: b_6.0_1.0 - b_6.0_5.0 + x_1.0_5.0 <= 1
copy1_1_6_2: b_2.0_1.0 - b_2.0_6.0 + x_1.0_6.0 <= 1
copy1_1_6_3: b_3.0_1.0 - b_3.0_6.0 + x_1.0_6.0 <= 1
copy1_1_6_4: b_4.0_1.0 - b_4.0_6.0 + x_1.0_6.0 <= 1
copy1_1_6_5: b_5.0_1.0 - b_5.0_6.0 + x_1.0_6.0 <= 1
copy1_1_6_6: b_6.0_1.0 - b_6.0_6.0 + x_1.0_6.0 <= 1
copy1_2_1_1: - b_1.0_1.0 + b_1.0_2.0 + x_2.0_1.0 <= 1
copy1_2_1_3: - b_3.0_1.0 + b_3.0_2.0 + x_2.0_1.0 <= 1
copy1_2_1_4: - b_4.0_1.0 + b_4.0_2.0 + x_2.0_1.0 <= 1
copy1_2_1_5: - b_5.0_1.0 + b_5.0_2.0 + x_2.0_1.0 <= 1
copy1_2_1_6: - b_6.0_1.0 + b_6.0_2.0 + x_2.0_1.0 <= 1
copy1_2_2_1: 0 b_1.0_2.0 + x_2.0_2.0 <= 1
copy1_2_2_3: 0 b_3.0_2.0 + x_2.0_2.0 <= 1
copy1_2_2_4: 0 b_4.0_2.0 + x_2.0_2.0 <= 1
copy1_2_2_5: 0 b_5.0_2.0 + x_2.0_2.0 <= 1
copy1_2_2_6: 0 b_6.0_2.0 + x_2.0_2.0 <= 1
copy1_2_3_1: b_1.0_2.0 - b_1.0_3.0 + x_2.0_3.0 <= 1
copy1_2_3_3: b_3.0_2.0 - b_3.0_3.0 + x_2.0_3.0 <= 1
copy1_2_3_4: b_4.0_2.0 - b_4.0_3.0 + x_2.0_3.0 <= 1
copy1_2_3_5: b_5.0_2.0 - b_5.0_3.0 + x_2.0_3.0 <= 1
copy1_2_3_6: b_6.0_2.0 - b_6.0_3.0 + x_2.0_3.0 <= 1
copy1_2_4_1: b_1.0_2.0 - b_1.0_4.0 + x_2.0_4.0 <= 1
copy1_2_4_3: b_3.0_2.0 - b_3.0_4.0 + x_2.0_4.0 <= 1
copy1_2_4_4: b_4.0_2.0 - b_4.0_4.0 + x_2.0_4.0 <= 1
copy1_2_4_5: b_5.0_2.0 - b_5.0_4.0 + x_2.0_4.0 <= 1
copy1_2_4_6: b_6.0_2.0 - b_6.0_4.0 + x_2.0_4.0 <= 1
copy1_2_5_1: b_1.0_2.0 - b_1.0_5.0 + x_2.0_5.0 <= 1
copy1_2_5_3: b_3.0_2.0 - b_3.0_5.0 + x_2.0_5.0 <= 1
copy1_2_5_4: b_4.0_2.0 - b_4.0_5.0 + x_2.0_5.0 <= 1
copy1_2_5_5: b_5.0_2.0 - b_5.0_5.0 + x_2.0_5.0 <= 1
copy1_2_5_6: b_6.0_2.0 - b_6.0_5.0 + x_2.0_5.0 <= 1
copy1_2_6_1: b_1.0_2.0 - b_1.0_6.0 + x_2.0_6.0 <= 1
copy1_2_6_3: b_3.0_2.0 - b_3.0_6.0 + x_2.0_6.0 <= 1
copy1_2_6_4: b_4.0_2.0 - b_4.0_6.0 + x_2.0_6.0 <= 1
copy1_2_6_5: b_5.0_2.0 - b_5.0_6.0 + x_2.0_6.0 <= 1
copy1_2_6_6: b_6.0_2.0 - b_6.0_6.0 + x_2.0_6.0 <= 1
copy1_3_1_1: - b_1.0_1.0 + b_1.0_3.0 + x_3.0_1.0 <= 1
copy1_3_1_2: - b_2.0_1.0 + b_2.0_3.0 + x_3.0_1.0 <= 1
copy1_3_1_4: - b_4.0_1.0 + b_4.0_3.0 + x_3.0_1.0 <= 1
copy1_3_1_5: - b_5.0_1.0 + b_5.0_3.0 + x_3.0_1.0 <= 1
copy1_3_1_6: - b_6.0_1.0 + b_6.0_3.0 + x_3.0_1.0 <= 1
copy1_3_2_1: - b_1.0_2.0 + b_1.0_3.0 + x_3.0_2.0 <= 1
copy1_3_2_2: - b_2.0_2.0 + b_2.0_3.0 + x_3.0_2.0 <= 1
copy1_3_2_4: - b_4.0_2.0 + b_4.0_3.0 + x_3.0_2.0 <= 1
copy1_3_2_5: - b_5.0_2.0 + b_5.0_3.0 + x_3.0_2.0 <= 1
copy1_3_2_6: - b_6.0_2.0 + b_6.0_3.0 + x_3.0_2.0 <= 1
copy1_3_3_1: 0 b_1.0_3.0 + x_3.0_3.0 <= 1
copy1_3_3_2: 0 b_2.0_3.0 + x_3.0_3.0 <= 1
copy1_3_3_4: 0 b_4.0_3.0 + x_3.0_3.0 <= 1
copy1_3_3_5: 0 b_5.0_3.0 + x_3.0_3.0 <= 1
copy1_3_3_6: 0 b_6.0_3.0 + x_3.0_3.0 <= 1
copy1_3_4_1: b_1.0_3.0 - b_1.0_4.0 + x_3.0_4.0 <= 1
copy1_3_4_2: b_2.0_3.0 - b_2.0_4.0 + x_3.0_4.0 <= 1
copy1_3_4_4: b_4.0_3.0 - b_4.0_4.0 + x_3.0_4.0 <= 1
copy1_3_4_5: b_5.0_3.0 - b_5.0_4.0 + x_3.0_4.0 <= 1
copy1_3_4_6: b_6.0_3.0 - b_6.0_4.0 + x_3.0_4.0 <= 1
copy1_3_5_1: b_1.0_3.0 - b_1.0_5.0 + x_3.0_5.0 <= 1
copy1_3_5_2: b_2.0_3.0 - b_2.0_5.0 + x_3.0_5.0 <= 1
copy1_3_5_4: b_4.0_3.0 - b_4.0_5.0 + x_3.0_5.0 <= 1
copy1_3_5_5: b_5.0_3.0 - b_5.0_5.0 + x_3.0_5.0 <= 1
copy1_3_5_6: b_6.0_3.0 - b_6.0_5.0 + x_3.0_5.0 <= 1
copy1_3_6_1: b_1.0_3.0 - b_1.0_6.0 + x_3.0_6.0 <= 1
copy1_3_6_2: b_2.0_3.0 - b_2.0_6.0 + x_3.0_6.0 <= 1
copy1_3_6_4: b_4.0_3.0 - b_4.0_6.0 + x_3.0_6.0 <= 1
copy1_3_6_5: b_5.0_3.0 - b_5.0_6.0 + x_3.0_6.0 <= 1
copy1_3_6_6: b_6.0_3.0 - b_6.0_6.0 + x_3.0_6.0 <= 1
copy1_4_1_1: - b_1.0_1.0 + b_1.0_4.0 + x_4.0_1.0 <= 1
copy1_4_1_2: - b_2.0_1.0 + b_2.0_4.0 + x_4.0_1.0 <= 1
copy1_4_1_3: - b_3.0_1.0 + b_3.0_4.0 + x_4.0_1.0 <= 1
copy1_4_1_5: - b_5.0_1.0 + b_5.0_4.0 + x_4.0_1.0 <= 1
copy1_4_1_6: - b_6.0_1.0 + b_6.0_4.0 + x_4.0_1.0 <= 1
copy1_4_2_1: - b_1.0_2.0 + b_1.0_4.0 + x_4.0_2.0 <= 1
copy1_4_2_2: - b_2.0_2.0 + b_2.0_4.0 + x_4.0_2.0 <= 1
copy1_4_2_3: - b_3.0_2.0 + b_3.0_4.0 + x_4.0_2.0 <= 1
copy1_4_2_5: - b_5.0_2.0 + b_5.0_4.0 + x_4.0_2.0 <= 1
copy1_4_2_6: - b_6.0_2.0 + b_6.0_4.0 + x_4.0_2.0 <= 1
copy1_4_3_1: - b_1.0_3.0 + b_1.0_4.0 + x_4.0_3.0 <= 1
copy1_4_3_2: - b_2.0_3.0 + b_2.0_4.0 + x_4.0_3.0 <= 1
copy1_4_3_3: - b_3.0_3.0 + b_3.0_4.0 + x_4.0_3.0 <= 1
copy1_4_3_5: - b_5.0_3.0 + b_5.0_4.0 + x_4.0_3.0 <= 1
copy1_4_3_6: - b_6.0_3.0 + b_6.0_4.0 + x_4.0_3.0 <= 1
copy1_4_4_1: 0 b_1.0_4.0 + x_4.0_4.0 <= 1
copy1_4_4_2: 0 b_2.0_4.0 + x_4.0_4.0 <= 1
copy1_4_4_3: 0 b_3.0_4.0 + x_4.0_4.0 <= 1
copy1_4_4_5: 0 b_5.0_4.0 + x_4.0_4.0 <= 1
copy1_4_4_6: 0 b_6.0_4.0 + x_4.0_4.0 <= 1
copy1_4_5_1: b_1.0_4.0 - b_1.0_5.0 + x_4.0_5.0 <= 1
copy1_4_5_2: b_2.0_4.0 - b_2.0_5.0 + x_4.0_5.0 <= 1
copy1_4_5_3: b_3.0_4.0 - b_3.0_5.0 + x_4.0_5.0 <= 1
copy1_4_5_5: b_5.0_4.0 - b_5.0_5.0 + x_4.0_5.0 <= 1
copy1_4_5_6: b_6.0_4.0 - b_6.0_5.0 + x_4.0_5.0 <= 1
copy1_4_6_1: b_1.0_4.0 - b_1.0_6.0 + x_4.0_6.0 <= 1
copy1_4_6_2: b_2.0_4.0 - b_2.0_6.0 + x_4.0_6.0 <= 1
copy1_4_6_3: b_3.0_4.0 - b_3.0_6.0 + x_4.0_6.0 <= 1
copy1_4_6_5: b_5.0_4.0 - b_5.0_6.0 + x_4.0_6.0 <= 1
copy1_4_6_6: b_6.0_4.0 - b_6.0_6.0 + x_4.0_6.0 <= 1
copy1_5_1_1: - b_1.0_1.0 + b_1.0_5.0 + x_5.0_1.0 <= 1
copy1_5_1_2: - b_2.0_1.0 + b_2.0_5.0 + x_5.0_1.0 <= 1
copy1_5_1_3: - b_3.0_1.0 + b_3.0_5.0 + x_5.0_1.0 <= 1
copy1_5_1_4: - b_4.0_1.0 + b_4.0_5.0 + x_5.0_1.0 <= 1
copy1_5_1_6: - b_6.0_1.0 + b_6.0_5.0 + x_5.0_1.0 <= 1
copy1_5_2_1: - b_1.0_2.0 + b_1.0_5.0 + x_5.0_2.0 <= 1
copy1_5_2_2: - b_2.0_2.0 + b_2.0_5.0 + x_5.0_2.0 <= 1
copy1_5_2_3: - b_3.0_2.0 + b_3.0_5.0 + x_5.0_2.0 <= 1
copy1_5_2_4: - b_4.0_2.0 + b_4.0_5.0 + x_5.0_2.0 <= 1
copy1_5_2_6: - b_6.0_2.0 + b_6.0_5.0 + x_5.0_2.0 <= 1
copy1_5_3_1: - b_1.0_3.0 + b_1.0_5.0 + x_5.0_3.0 <= 1
copy1_5_3_2: - b_2.0_3.0 + b_2.0_5.0 + x_5.0_3.0 <= 1
copy1_5_3_3: - b_3.0_3.0 + b_3.0_5.0 + x_5.0_3.0 <= 1
copy1_5_3_4: - b_4.0_3.0 + b_4.0_5.0 + x_5.0_3.0 <= 1
copy1_5_3_6: - b_6.0_3.0 + b_6.0_5.0 + x_5.0_3.0 <= 1
copy1_5_4_1: - b_1.0_4.0 + b_1.0_5.0 + x_5.0_4.0 <= 1
copy1_5_4_2: - b_2.0_4.0 + b_2.0_5.0 + x_5.0_4.0 <= 1
copy1_5_4_3: - b_3.0_4.0 + b_3.0_5.0 + x_5.0_4.0 <= 1
copy1_5_4_4: - b_4.0_4.0 + b_4.0_5.0 + x_5.0_4.0 <= 1
copy1_5_4_6: - b_6.0_4.0 + b_6.0_5.0 + x_5.0_4.0 <= 1
copy1_5_5_1: 0 b_1.0_5.0 + x_5.0_5.0 <= 1
copy1_5_5_2: 0 b_2.0_5.0 + x_5.0_5.0 <= 1
copy1_5_5_3: 0 b_3.0_5.0 + x_5.0_5.0 <= 1
copy1_5_5_4: 0 b_4.0_5.0 + x_5.0_5.0 <= 1
copy1_5_5_6: 0 b_6.0_5.0 + x_5.0_5.0 <= 1
copy1_5_6_1: b_1.0_5.0 - b_1.0_6.0 + x_5.0_6.0 <= 1
copy1_5_6_2: b_2.0_5.0 - b_2.0_6.0 + x_5.0_6.0 <= 1
copy1_5_6_3: b_3.0_5.0 - b_3.0_6.0 + x_5.0_6.0 <= 1
copy1_5_6_4: b_4.0_5.0 - b_4.0_6.0 + x_5.0_6.0 <= 1
copy1_5_6_6: b_6.0_5.0 - b_6.0_6.0 + x_5.0_6.0 <= 1
copy1_6_1_1: - b_1.0_1.0 + b_1.0_6.0 + x_6.0_1.0 <= 1
copy1_6_1_2: - b_2.0_1.0 + b_2.0_6.0 + x_6.0_1.0 <= 1
copy1_6_1_3: - b_3.0_1.0 + b_3.0_6.0 + x_6.0_1.0 <= 1
copy1_6_1_4: - b_4.0_1.0 + b_4.0_6.0 + x_6.0_1.0 <= 1
copy1_6_1_5: - b_5.0_1.0 + b_5.0_6.0 + x_6.0_1.0 <= 1
copy1_6_2_1: - b_1.0_2.0 + b_1.0_6.0 + x_6.0_2.0 <= 1
copy1_6_2_2: - b_2.0_2.0 + b_2.0_6.0 + x_6.0_2.0 <= 1
copy1_6_2_3: - b_3.0_2.0 + b_3.0_6.0 + x_6.0_2.0 <= 1
copy1_6_2_4: - b_4.0_2.0 + b_4.0_6.0 + x_6.0_2.0 <= 1
copy1_6_2_5: - b_5.0_2.0 + b_5.0_6.0 + x_6.0_2.0 <= 1
copy1_6_3_1: - b_1.0_3.0 + b_1.0_6.0 + x_6.0_3.0 <= 1
copy1_6_3_2: - b_2.0_3.0 + b_2.0_6.0 + x_6.0_3.0 <= 1
copy1_6_3_3: - b_3.0_3.0 + b_3.0_6.0 + x_6.0_3.0 <= 1
copy1_6_3_4: - b_4.0_3.0 + b_4.0_6.0 + x_6.0_3.0 <= 1
copy1_6_3_5: - b_5.0_3.0 + b_5.0_6.0 + x_6.0_3.0 <= 1
copy1_6_4_1: - b_1.0_4.0 + b_1.0_6.0 + x_6.0_4.0 <= 1
copy1_6_4_2: - b_2.0_4.0 + b_2.0_6.0 + x_6.0_4.0 <= 1
copy1_6_4_3: - b_3.0_4.0 + b_3.0_6.0 + x_6.0_4.0 <= 1
copy1_6_4_4: - b_4.0_4.0 + b_4.0_6.0 + x_6.0_4.0 <= 1
copy1_6_4_5: - b_5.0_4.0 + b_5.0_6.0 + x_6.0_4.0 <= 1
copy1_6_5_1: - b_1.0_5.0 + b_1.0_6.0 + x_6.0_5.0 <= 1
copy1_6_5_2: - b_2.0_5.0 + b_2.0_6.0 + x_6.0_5.0 <= 1
copy1_6_5_3: - b_3.0_5.0 + b_3.0_6.0 + x_6.0_5.0 <= 1
copy1_6_5_4: - b_4.0_5.0 + b_4.0_6.0 + x_6.0_5.0 <= 1
copy1_6_5_5: - b_5.0_5.0 + b_5.0_6.0 + x_6.0_5.0 <= 1
copy1_6_6_1: 0 b_1.0_6.0 + x_6.0_6.0 <= 1
copy1_6_6_2: 0 b_2.0_6.0 + x_6.0_6.0 <= 1
copy1_6_6_3: 0 b_3.0_6.0 + x_6.0_6.0 <= 1
copy1_6_6_4: 0 b_4.0_6.0 + x_6.0_6.0 <= 1
copy1_6_6_5: 0 b_5.0_6.0 + x_6.0_6.0 <= 1
copy2_1_1_2: 0 b_2.0_1.0 + x_1.0_1.0 <= 1
copy2_1_1_3: 0 b_3.0_1.0 + x_1.0_1.0 <= 1
copy2_1_1_4: 0 b_4.0_1.0 + x_1.0_1.0 <= 1
copy2_1_1_5: 0 b_5.0_1.0 + x_1.0_1.0 <= 1
copy2_1_1_6: 0 b_6.0_1.0 + x_1.0_1.0 <= 1
copy2_1_2_2: - b_2.0_1.0 + b_2.0_2.0 + x_1.0_2.0 <= 1
copy2_1_2_3: - b_3.0_1.0 + b_3.0_2.0 + x_1.0_2.0 <= 1
copy2_1_2_4: - b_4.0_1.0 + b_4.0_2.0 + x_1.0_2.0 <= 1
copy2_1_2_5: - b_5.0_1.0 + b_5.0_2.0 + x_1.0_2.0 <= 1
copy2_1_2_6: - b_6.0_1.0 + b_6.0_2.0 + x_1.0_2.0 <= 1
copy2_1_3_2: - b_2.0_1.0 + b_2.0_3.0 + x_1.0_3.0 <= 1
copy2_1_3_3: - b_3.0_1.0 + b_3.0_3.0 + x_1.0_3.0 <= 1
copy2_1_3_4: - b_4.0_1.0 + b_4.0_3.0 + x_1.0_3.0 <= 1
copy2_1_3_5: - b_5.0_1.0 + b_5.0_3.0 + x_1.0_3.0 <= 1
copy2_1_3_6: - b_6.0_1.0 + b_6.0_3.0 + x_1.0_3.0 <= 1
copy2_1_4_2: - b_2.0_1.0 + b_2.0_4.0 + x_1.0_4.0 <= 1
copy2_1_4_3: - b_3.0_1.0 + b_3.0_4.0 + x_1.0_4.0 <= 1
copy2_1_4_4: - b_4.0_1.0 + b_4.0_4.0 + x_1.0_4.0 <= 1
copy2_1_4_5: - b_5.0_1.0 + b_5.0_4.0 + x_1.0_4.0 <= 1
copy2_1_4_6: - b_6.0_1.0 + b_6.0_4.0 + x_1.0_4.0 <= 1
copy2_1_5_2: - b_2.0_1.0 + b_2.0_5.0 + x_1.0_5.0 <= 1
copy2_1_5_3: - b_3.0_1.0 + b_3.0_5.0 + x_1.0_5.0 <= 1
copy2_1_5_4: - b_4.0_1.0 + b_4.0_5.0 + x_1.0_5.0 <= 1
copy2_1_5_5: - b_5.0_1.0 + b_5.0_5.0 + x_1.0_5.0 <= 1
copy2_1_5_6: - b_6.0_1.0 + b_6.0_5.0 + x_1.0_5.0 <= 1
copy2_1_6_2: - b_2.0_1.0 + b_2.0_6.0 + x_1.0_6.0 <= 1
copy2_1_6_3: - b_3.0_1.0 + b_3.0_6.0 + x_1.0_6.0 <= 1
copy2_1_6_4: - b_4.0_1.0 + b_4.0_6.0 + x_1.0_6.0 <= 1
copy2_1_6_5: - b_5.0_1.0 + b_5.0_6.0 + x_1.0_6.0 <= 1
copy2_1_6_6: - b_6.0_1.0 + b_6.0_6.0 + x_1.0_6.0 <= 1
copy2_2_1_1: b_1.0_1.0 - b_1.0_2.0 + x_2.0_1.0 <= 1
copy2_2_1_3: b_3.0_1.0 - b_3.0_2.0 + x_2.0_1.0 <= 1
copy2_2_1_4: b_4.0_1.0 - b_4.0_2.0 + x_2.0_1.0 <= 1
copy2_2_1_5: b_5.0_1.0 - b_5.0_2.0 + x_2.0_1.0 <= 1
copy2_2_1_6: b_6.0_1.0 - b_6.0_2.0 + x_2.0_1.0 <= 1
copy2_2_2_1: 0 b_1.0_2.0 + x_2.0_2.0 <= 1
copy2_2_2_3: 0 b_3.0_2.0 + x_2.0_2.0 <= 1
copy2_2_2_4: 0 b_4.0_2.0 + x_2.0_2.0 <= 1
copy2_2_2_5: 0 b_5.0_2.0 + x_2.0_2.0 <= 1
copy2_2_2_6: 0 b_6.0_2.0 + x_2.0_2.0 <= 1
copy2_2_3_1: - b_1.0_2.0 + b_1.0_3.0 + x_2.0_3.0 <= 1
copy2_2_3_3: - b_3.0_2.0 + b_3.0_3.0 + x_2.0_3.0 <= 1
copy2_2_3_4: - b_4.0_2.0 + b_4.0_3.0 + x_2.0_3.0 <= 1
copy2_2_3_5: - b_5.0_2.0 + b_5.0_3.0 + x_2.0_3.0 <= 1
copy2_2_3_6: - b_6.0_2.0 + b_6.0_3.0 + x_2.0_3.0 <= 1
copy2_2_4_1: - b_1.0_2.0 + b_1.0_4.0 + x_2.0_4.0 <= 1
copy2_2_4_3: - b_3.0_2.0 + b_3.0_4.0 + x_2.0_4.0 <= 1
copy2_2_4_4: - b_4.0_2.0 + b_4.0_4.0 + x_2.0_4.0 <= 1
copy2_2_4_5: - b_5.0_2.0 + b_5.0_4.0 + x_2.0_4.0 <= 1
copy2_2_4_6: - b_6.0_2.0 + b_6.0_4.0 + x_2.0_4.0 <= 1
copy2_2_5_1: - b_1.0_2.0 + b_1.0_5.0 + x_2.0_5.0 <= 1
copy2_2_5_3: - b_3.0_2.0 + b_3.0_5.0 + x_2.0_5.0 <= 1
copy2_2_5_4: - b_4.0_2.0 + b_4.0_5.0 + x_2.0_5.0 <= 1
copy2_2_5_5: - b_5.0_2.0 + b_5.0_5.0 + x_2.0_5.0 <= 1
copy2_2_5_6: - b_6.0_2.0 + b_6.0_5.0 + x_2.0_5.0 <= 1
copy2_2_6_1: - b_1.0_2.0 + b_1.0_6.0 + x_2.0_6.0 <= 1
copy2_2_6_3: - b_3.0_2.0 + b_3.0_6.0 + x_2.0_6.0 <= 1
copy2_2_6_4: - b_4.0_2.0 + b_4.0_6.0 + x_2.0_6.0 <= 1
copy2_2_6_5: - b_5.0_2.0 + b_5.0_6.0 + x_2.0_6.0 <= 1
copy2_2_6_6: - b_6.0_2.0 + b_6.0_6.0 + x_2.0_6.0 <= 1
copy2_3_1_1: b_1.0_1.0 - b_1.0_3.0 + x_3.0_1.0 <= 1
copy2_3_1_2: b_2.0_1.0 - b_2.0_3.0 + x_3.0_1.0 <= 1
copy2_3_1_4: b_4.0_1.0 - b_4.0_3.0 + x_3.0_1.0 <= 1
copy2_3_1_5: b_5.0_1.0 - b_5.0_3.0 + x_3.0_1.0 <= 1
copy2_3_1_6: b_6.0_1.0 - b_6.0_3.0 + x_3.0_1.0 <= 1
copy2_3_2_1: b_1.0_2.0 - b_1.0_3.0 + x_3.0_2.0 <= 1
copy2_3_2_2: b_2.0_2.0 - b_2.0_3.0 + x_3.0_2.0 <= 1
copy2_3_2_4: b_4.0_2.0 - b_4.0_3.0 + x_3.0_2.0 <= 1
copy2_3_2_5: b_5.0_2.0 - b_5.0_3.0 + x_3.0_2.0 <= 1
copy2_3_2_6: b_6.0_2.0 - b_6.0_3.0 + x_3.0_2.0 <= 1
copy2_3_3_1: 0 b_1.0_3.0 + x_3.0_3.0 <= 1
copy2_3_3_2: 0 b_2.0_3.0 + x_3.0_3.0 <= 1
copy2_3_3_4: 0 b_4.0_3.0 + x_3.0_3.0 <= 1
copy2_3_3_5: 0 b_5.0_3.0 + x_3.0_3.0 <= 1
copy2_3_3_6: 0 b_6.0_3.0 + x_3.0_3.0 <= 1
copy2_3_4_1: - b_1.0_3.0 + b_1.0_4.0 + x_3.0_4.0 <= 1
copy2_3_4_2: - b_2.0_3.0 + b_2.0_4.0 + x_3.0_4.0 <= 1
copy2_3_4_4: - b_4.0_3.0 + b_4.0_4.0 + x_3.0_4.0 <= 1
copy2_3_4_5: - b_5.0_3.0 + b_5.0_4.0 + x_3.0_4.0 <= 1
copy2_3_4_6: - b_6.0_3.0 + b_6.0_4.0 + x_3.0_4.0 <= 1
copy2_3_5_1: - b_1.0_3.0 + b_1.0_5.0 + x_3.0_5.0 <= 1
copy2_3_5_2: - b_2.0_3.0 + b_2.0_5.0 + x_3.0_5.0 <= 1
copy2_3_5_4: - b_4.0_3.0 + b_4.0_5.0 + x_3.0_5.0 <= 1
copy2_3_5_5: - b_5.0_3.0 + b_5.0_5.0 + x_3.0_5.0 <= 1
copy2_3_5_6: - b_6.0_3.0 + b_6.0_5.0 + x_3.0_5.0 <= 1
copy2_3_6_1: - b_1.0_3.0 + b_1.0_6.0 + x_3.0_6.0 <= 1
copy2_3_6_2: - b_2.0_3.0 + b_2.0_6.0 + x_3.0_6.0 <= 1
copy2_3_6_4: - b_4.0_3.0 + b_4.0_6.0 + x_3.0_6.0 <= 1
copy2_3_6_5: - b_5.0_3.0 + b_5.0_6.0 + x_3.0_6.0 <= 1
copy2_3_6_6: - b_6.0_3.0 + b_6.0_6.0 + x_3.0_6.0 <= 1
copy2_4_1_1: b_1.0_1.0 - b_1.0_4.0 + x_4.0_1.0 <= 1
copy2_4_1_2: b_2.0_1.0 - b_2.0_4.0 + x_4.0_1.0 <= 1
copy2_4_1_3: b_3.0_1.0 - b_3.0_4.0 + x_4.0_1.0 <= 1
copy2_4_1_5: b_5.0_1.0 - b_5.0_4.0 + x_4.0_1.0 <= 1
copy2_4_1_6: b_6.0_1.0 - b_6.0_4.0 + x_4.0_1.0 <= 1
copy2_4_2_1: b_1.0_2.0 - b_1.0_4.0 + x_4.0_2.0 <= 1
copy2_4_2_2: b_2.0_2.0 - b_2.0_4.0 + x_4.0_2.0 <= 1
copy2_4_2_3: b_3.0_2.0 - b_3.0_4.0 + x_4.0_2.0 <= 1
copy2_4_2_5: b_5.0_2.0 - b_5.0_4.0 + x_4.0_2.0 <= 1
copy2_4_2_6: b_6.0_2.0 - b_6.0_4.0 + x_4.0_2.0 <= 1
copy2_4_3_1: b_1.0_3.0 - b_1.0_4.0 + x_4.0_3.0 <= 1
copy2_4_3_2: b_2.0_3.0 - b_2.0_4.0 + x_4.0_3.0 <= 1
copy2_4_3_3: b_3.0_3.0 - b_3.0_4.0 + x_4.0_3.0 <= 1
copy2_4_3_5: b_5.0_3.0 - b_5.0_4.0 + x_4.0_3.0 <= 1
copy2_4_3_6: b_6.0_3.0 - b_6.0_4.0 + x_4.0_3.0 <= 1
copy2_4_4_1: 0 b_1.0_4.0 + x_4.0_4.0 <= 1
copy2_4_4_2: 0 b_2.0_4.0 + x_4.0_4.0 <= 1
copy2_4_4_3: 0 b_3.0_4.0 + x_4.0_4.0 <= 1
copy2_4_4_5: 0 b_5.0_4.0 + x_4.0_4.0 <= 1
copy2_4_4_6: 0 b_6.0_4.0 + x_4.0_4.0 <= 1
copy2_4_5_1: - b_1.0_4.0 + b_1.0_5.0 + x_4.0_5.0 <= 1
copy2_4_5_2: - b_2.0_4.0 + b_2.0_5.0 + x_4.0_5.0 <= 1
copy2_4_5_3: - b_3.0_4.0 + b_3.0_5.0 + x_4.0_5.0 <= 1
copy2_4_5_5: - b_5.0_4.0 + b_5.0_5.0 + x_4.0_5.0 <= 1
copy2_4_5_6: - b_6.0_4.0 + b_6.0_5.0 + x_4.0_5.0 <= 1
copy2_4_6_1: - b_1.0_4.0 + b_1.0_6.0 + x_4.0_6.0 <= 1
copy2_4_6_2: - b_2.0_4.0 + b_2.0_6.0 + x_4.0_6.0 <= 1
copy2_4_6_3: - b_3.0_4.0 + b_3.0_6.0 + x_4.0_6.0 <= 1
copy2_4_6_5: - b_5.0_4.0 + b_5.0_6.0 + x_4.0_6.0 <= 1
copy2_4_6_6: - b_6.0_4.0 + b_6.0_6.0 + x_4.0_6.0 <= 1
copy2_5_1_1: b_1.0_1.0 - b_1.0_5.0 + x_5.0_1.0 <= 1
copy2_5_1_2: b_2.0_1.0 - b_2.0_5.0 + x_5.0_1.0 <= 1
copy2_5_1_3: b_3.0_1.0 - b_3.0_5.0 + x_5.0_1.0 <= 1
copy2_5_1_4: b_4.0_1.0 - b_4.0_5.0 + x_5.0_1.0 <= 1
copy2_5_1_6: b_6.0_1.0 - b_6.0_5.0 + x_5.0_1.0 <= 1
copy2_5_2_1: b_1.0_2.0 - b_1.0_5.0 + x_5.0_2.0 <= 1
copy2_5_2_2: b_2.0_2.0 - b_2.0_5.0 + x_5.0_2.0 <= 1
copy2_5_2_3: b_3.0_2.0 - b_3.0_5.0 + x_5.0_2.0 <= 1
copy2_5_2_4: b_4.0_2.0 - b_4.0_5.0 + x_5.0_2.0 <= 1
copy2_5_2_6: b_6.0_2.0 - b_6.0_5.0 + x_5.0_2.0 <= 1
copy2_5_3_1: b_1.0_3.0 - b_1.0_5.0 + x_5.0_3.0 <= 1
copy2_5_3_2: b_2.0_3.0 - b_2.0_5.0 + x_5.0_3.0 <= 1
copy2_5_3_3: b_3.0_3.0 - b_3.0_5.0 + x_5.0_3.0 <= 1
copy2_5_3_4: b_4.0_3.0 - b_4.0_5.0 + x_5.0_3.0 <= 1
copy2_5_3_6: b_6.0_3.0 - b_6.0_5.0 + x_5.0_3.0 <= 1
copy2_5_4_1: b_1.0_4.0 - b_1.0_5.0 + x_5.0_4.0 <= 1
copy2_5_4_2: b_2.0_4.0 - b_2.0_5.0 + x_5.0_4.0 <= 1
copy2_5_4_3: b_3.0_4.0 - b_3.0_5.0 + x_5.0_4.0 <= 1
copy2_5_4_4: b_4.0_4.0 - b_4.0_5.0 + x_5.0_4.0 <= 1
copy2_5_4_6: b_6.0_4.0 - b_6.0_5.0 + x_5.0_4.0 <= 1
copy2_5_5_1: 0 b_1.0_5.0 + x_5.0_5.0 <= 1
copy2_5_5_2: 0 b_2.0_5.0 + x_5.0_5.0 <= 1
copy2_5_5_3: 0 b_3.0_5.0 + x_5.0_5.0 <= 1
copy2_5_5_4: 0 b_4.0_5.0 + x_5.0_5.0 <= 1
copy2_5_5_6: 0 b_6.0_5.0 + x_5.0_5.0 <= 1
copy2_5_6_1: - b_1.0_5.0 + b_1.0_6.0 + x_5.0_6.0 <= 1
copy2_5_6_2: - b_2.0_5.0 + b_2.0_6.0 + x_5.0_6.0 <= 1
copy2_5_6_3: - b_3.0_5.0 + b_3.0_6.0 + x_5.0_6.0 <= 1
copy2_5_6_4: - b_4.0_5.0 + b_4.0_6.0 + x_5.0_6.0 <= 1
copy2_5_6_6: - b_6.0_5.0 + b_6.0_6.0 + x_5.0_6.0 <= 1
copy2_6_1_1: b_1.0_1.0 - b_1.0_6.0 + x_6.0_1.0 <= 1
copy2_6_1_2: b_2.0_1.0 - b_2.0_6.0 + x_6.0_1.0 <= 1
copy2_6_1_3: b_3.0_1.0 - b_3.0_6.0 + x_6.0_1.0 <= 1
copy2_6_1_4: b_4.0_1.0 - b_4.0_6.0 + x_6.0_1.0 <= 1
copy2_6_1_5: b_5.0_1.0 - b_5.0_6.0 + x_6.0_1.0 <= 1
copy2_6_2_1: b_1.0_2.0 - b_1.0_6.0 + x_6.0_2.0 <= 1
copy2_6_2_2: b_2.0_2.0 - b_2.0_6.0 + x_6.0_2.0 <= 1
copy2_6_2_3: b_3.0_2.0 - b_3.0_6.0 + x_6.0_2.0 <= 1
copy2_6_2_4: b_4.0_2.0 - b_4.0_6.0 + x_6.0_2.0 <= 1
copy2_6_2_5: b_5.0_2.0 - b_5.0_6.0 + x_6.0_2.0 <= 1
copy2_6_3_1: b_1.0_3.0 - b_1.0_6.0 + x_6.0_3.0 <= 1
copy2_6_3_2: b_2.0_3.0 - b_2.0_6.0 + x_6.0_3.0 <= 1
copy2_6_3_3: b_3.0_3.0 - b_3.0_6.0 + x_6.0_3.0 <= 1
copy2_6_3_4: b_4.0_3.0 - b_4.0_6.0 + x_6.0_3.0 <= 1
copy2_6_3_5: b_5.0_3.0 - b_5.0_6.0 + x_6.0_3.0 <= 1
copy2_6_4_1: b_1.0_4.0 - b_1.0_6.0 + x_6.0_4.0 <= 1
copy2_6_4_2: b_2.0_4.0 - b_2.0_6.0 + x_6.0_4.0 <= 1
copy2_6_4_3: b_3.0_4.0 - b_3.0_6.0 + x_6.0_4.0 <= 1
copy2_6_4_4: b_4.0_4.0 - b_4.0_6.0 + x_6.0_4.0 <= 1
copy2_6_4_5: b_5.0_4.0 - b_5.0_6.0 + x_6.0_4.0 <= 1
copy2_6_5_1: b_1.0_5.0 - b_1.0_6.0 + x_6.0_5.0 <= 1
copy2_6_5_2: b_2.0_5.0 - b_2.0_6.0 + x_6.0_5.0 <= 1
copy2_6_5_3: b_3.0_5.0 - b_3.0_6.0 + x_6.0_5.0 <= 1
copy2_6_5_4: b_4.0_5.0 - b_4.0_6.0 + x_6.0_5.0 <= 1
copy2_6_5_5: b_5.0_5.0 - b_5.0_6.0 + x_6.0_5.0 <= 1
copy2_6_6_1: 0 b_1.0_6.0 + x_6.0_6.0 <= 1
copy2_6_6_2: 0 b_2.0_6.0 + x_6.0_6.0 <= 1
copy2_6_6_3: 0 b_3.0_6.0 + x_6.0_6.0 <= 1
copy2_6_6_4: 0 b_4.0_6.0 + x_6.0_6.0 <= 1
copy2_6_6_5: 0 b_5.0_6.0 + x_6.0_6.0 <= 1
copy3_1_1: - b_1.0_1.0 + x_1.0_1.0 <= 0
copy3_1_2: - b_1.0_2.0 + x_1.0_2.0 <= 0
copy3_1_3: - b_1.0_3.0 + x_1.0_3.0 <= 0
copy3_1_4: - b_1.0_4.0 + x_1.0_4.0 <= 0
copy3_1_5: - b_1.0_5.0 + x_1.0_5.0 <= 0
copy3_1_6: - b_1.0_6.0 + x_1.0_6.0 <= 0
copy3_1_7: - b_1.0_7.0 + x_1.0_7.0 <= 0
copy3_2_1: - b_2.0_1.0 + x_2.0_1.0 <= 0
copy3_2_2: - b_2.0_2.0 + x_2.0_2.0 <= 0
copy3_2_3: - b_2.0_3.0 + x_2.0_3.0 <= 0
copy3_2_4: - b_2.0_4.0 + x_2.0_4.0 <= 0
copy3_2_5: - b_2.0_5.0 + x_2.0_5.0 <= 0
copy3_2_6: - b_2.0_6.0 + x_2.0_6.0 <= 0
copy3_2_7: - b_2.0_7.0 + x_2.0_7.0 <= 0
copy3_3_1: - b_3.0_1.0 + x_3.0_1.0 <= 0
copy3_3_2: - b_3.0_2.0 + x_3.0_2.0 <= 0
copy3_3_3: - b_3.0_3.0 + x_3.0_3.0 <= 0
copy3_3_4: - b_3.0_4.0 + x_3.0_4.0 <= 0
copy3_3_5: - b_3.0_5.0 + x_3.0_5.0 <= 0
copy3_3_6: - b_3.0_6.0 + x_3.0_6.0 <= 0
copy3_3_7: - b_3.0_7.0 + x_3.0_7.0 <= 0
copy3_4_1: - b_4.0_1.0 + x_4.0_1.0 <= 0
copy3_4_2: - b_4.0_2.0 + x_4.0_2.0 <= 0
copy3_4_3: - b_4.0_3.0 + x_4.0_3.0 <= 0
copy3_4_4: - b_4.0_4.0 + x_4.0_4.0 <= 0
copy3_4_5: - b_4.0_5.0 + x_4.0_5.0 <= 0
copy3_4_6: - b_4.0_6.0 + x_4.0_6.0 <= 0
copy3_4_7: - b_4.0_7.0 + x_4.0_7.0 <= 0
copy3_5_1: - b_5.0_1.0 + x_5.0_1.0 <= 0
copy3_5_2: - b_5.0_2.0 + x_5.0_2.0 <= 0
copy3_5_3: - b_5.0_3.0 + x_5.0_3.0 <= 0
copy3_5_4: - b_5.0_4.0 + x_5.0_4.0 <= 0
copy3_5_5: - b_5.0_5.0 + x_5.0_5.0 <= 0
copy3_5_6: - b_5.0_6.0 + x_5.0_6.0 <= 0
copy3_5_7: - b_5.0_7.0 + x_5.0_7.0 <= 0
copy3_6_1: - b_6.0_1.0 + x_6.0_1.0 <= 0
copy3_6_2: - b_6.0_2.0 + x_6.0_2.0 <= 0
copy3_6_3: - b_6.0_3.0 + x_6.0_3.0 <= 0
copy3_6_4: - b_6.0_4.0 + x_6.0_4.0 <= 0
copy3_6_5: - b_6.0_5.0 + x_6.0_5.0 <= 0
copy3_6_6: - b_6.0_6.0 + x_6.0_6.0 <= 0
copy3_6_7: - b_6.0_7.0 + x_6.0_7.0 <= 0
copy3_7_1: - b_7.0_1.0 + x_7.0_1.0 <= 0
copy3_7_2: - b_7.0_2.0 + x_7.0_2.0 <= 0
copy3_7_3: - b_7.0_3.0 + x_7.0_3.0 <= 0
copy3_7_4: - b_7.0_4.0 + x_7.0_4.0 <= 0
copy3_7_5: - b_7.0_5.0 + x_7.0_5.0 <= 0
copy3_7_6: - b_7.0_6.0 + x_7.0_6.0 <= 0
copy3_7_7: - b_7.0_7.0 + x_7.0_7.0 <= 0
Binaries
b_1.0_1.0
b_1.0_2.0
b_1.0_3.0
b_1.0_4.0
b_1.0_5.0
b_1.0_6.0
b_1.0_7.0
b_2.0_1.0
b_2.0_2.0
b_2.0_3.0
b_2.0_4.0
b_2.0_5.0
b_2.0_6.0
b_2.0_7.0
b_3.0_1.0
b_3.0_2.0
b_3.0_3.0
b_3.0_4.0
b_3.0_5.0
b_3.0_6.0
b_3.0_7.0
b_4.0_1.0
b_4.0_2.0
b_4.0_3.0
b_4.0_4.0
b_4.0_5.0
b_4.0_6.0
b_4.0_7.0
b_5.0_1.0
b_5.0_2.0
b_5.0_3.0
b_5.0_4.0
b_5.0_5.0
b_5.0_6.0
b_5.0_7.0
b_6.0_1.0
b_6.0_2.0
b_6.0_3.0
b_6.0_4.0
b_6.0_5.0
b_6.0_6.0
b_6.0_7.0
b_7.0_1.0
b_7.0_2.0
b_7.0_3.0
b_7.0_4.0
b_7.0_5.0
b_7.0_6.0
b_7.0_7.0
x_1.0_1.0
x_1.0_2.0
x_1.0_3.0
x_1.0_4.0
x_1.0_5.0
x_1.0_6.0
x_1.0_7.0
x_2.0_1.0
x_2.0_2.0
x_2.0_3.0
x_2.0_4.0
x_2.0_5.0
x_2.0_6.0
x_2.0_7.0
x_3.0_1.0
x_3.0_2.0
x_3.0_3.0
x_3.0_4.0
x_3.0_5.0
x_3.0_6.0
x_3.0_7.0
x_4.0_1.0
x_4.0_2.0
x_4.0_3.0
x_4.0_4.0
x_4.0_5.0
x_4.0_6.0
x_4.0_7.0
x_5.0_1.0
x_5.0_2.0
x_5.0_3.0
x_5.0_4.0
x_5.0_5.0
x_5.0_6.0
x_5.0_7.0
x_6.0_1.0
x_6.0_2.0
x_6.0_3.0
x_6.0_4.0
x_6.0_5.0
x_6.0_6.0
x_6.0_7.0
x_7.0_1.0
x_7.0_2.0
x_7.0_3.0
x_7.0_4.0
x_7.0_5.0
x_7.0_6.0
x_7.0_7.0
End
